p cnf 1097 2413
c 2 universe_0("e1",8)
c 3 universe_1("e2",4)
c 4 universe_2("e3",2)
c 5 universe_3("e4",1)
c 6 dom1_0("e1",8)
c 7 dom1_1("e2",4)
c 8 dom1_2("e3",2)
c 9 df_0_0("e1",8)
c 10 df_0_1("e2",4)
c 11 df_0_2("e3",2)
c 12 universe("e1")
c 13 universe("e2")
c 14 universe("e3")
c 15 universe("e4")
c 16 dom1("e1")
c 17 dom1("e2")
c 18 dom1("e3")
c 19 df_0("e1")
c 20 df_0("e2")
c 21 df_0("e3")
c 22 sequence_guess_3("e1","e1","e1")
c 23 sequence_guess_3("e2","e1","e1")
c 24 sequence_guess_3("e3","e1","e1")
c 25 sequence_guess_3("e4","e1","e1")
c 26 sequence_guess_3("e1","e2","e1")
c 27 sequence_guess_3("e2","e2","e1")
c 28 sequence_guess_3("e3","e2","e1")
c 29 sequence_guess_3("e4","e2","e1")
c 30 sequence_guess_3("e1","e3","e1")
c 31 sequence_guess_3("e2","e3","e1")
c 32 sequence_guess_3("e3","e3","e1")
c 33 sequence_guess_3("e4","e3","e1")
c 34 sequence_guess_3("e1","e4","e1")
c 35 sequence_guess_3("e2","e4","e1")
c 36 sequence_guess_3("e3","e4","e1")
c 37 sequence_guess_3("e4","e4","e1")
c 38 sequence_guess_3("e1","e1","e2")
c 39 sequence_guess_3("e2","e1","e2")
c 40 sequence_guess_3("e3","e1","e2")
c 41 sequence_guess_3("e4","e1","e2")
c 42 sequence_guess_3("e1","e2","e2")
c 43 sequence_guess_3("e2","e2","e2")
c 44 sequence_guess_3("e3","e2","e2")
c 45 sequence_guess_3("e4","e2","e2")
c 46 sequence_guess_3("e1","e3","e2")
c 47 sequence_guess_3("e2","e3","e2")
c 48 sequence_guess_3("e3","e3","e2")
c 49 sequence_guess_3("e4","e3","e2")
c 50 sequence_guess_3("e1","e4","e2")
c 51 sequence_guess_3("e2","e4","e2")
c 52 sequence_guess_3("e3","e4","e2")
c 53 sequence_guess_3("e4","e4","e2")
c 54 sequence_guess_3("e1","e1","e3")
c 55 sequence_guess_3("e2","e1","e3")
c 56 sequence_guess_3("e3","e1","e3")
c 57 sequence_guess_3("e4","e1","e3")
c 58 sequence_guess_3("e1","e2","e3")
c 59 sequence_guess_3("e2","e2","e3")
c 60 sequence_guess_3("e3","e2","e3")
c 61 sequence_guess_3("e4","e2","e3")
c 62 sequence_guess_3("e1","e3","e3")
c 63 sequence_guess_3("e2","e3","e3")
c 64 sequence_guess_3("e3","e3","e3")
c 65 sequence_guess_3("e4","e3","e3")
c 66 sequence_guess_3("e1","e4","e3")
c 67 sequence_guess_3("e2","e4","e3")
c 68 sequence_guess_3("e3","e4","e3")
c 69 sequence_guess_3("e4","e4","e3")
c 70 sequence_guess_3("e1","e1","e4")
c 71 sequence_guess_3("e2","e1","e4")
c 72 sequence_guess_3("e3","e1","e4")
c 73 sequence_guess_3("e4","e1","e4")
c 74 sequence_guess_3("e1","e2","e4")
c 75 sequence_guess_3("e2","e2","e4")
c 76 sequence_guess_3("e3","e2","e4")
c 77 sequence_guess_3("e4","e2","e4")
c 78 sequence_guess_3("e1","e3","e4")
c 79 sequence_guess_3("e2","e3","e4")
c 80 sequence_guess_3("e3","e3","e4")
c 81 sequence_guess_3("e4","e3","e4")
c 82 sequence_guess_3("e1","e4","e4")
c 83 sequence_guess_3("e2","e4","e4")
c 84 sequence_guess_3("e3","e4","e4")
c 85 sequence_guess_3("e4","e4","e4")
c 86 used_3("e1",0)
c 87 sequence_3("e1","e1","e1")
c 88 used_3("e2",0)
c 89 sequence_3("e2","e1","e1")
c 90 used_3("e3",0)
c 91 sequence_3("e3","e1","e1")
c 92 used_3("e4",0)
c 93 sequence_3("e4","e1","e1")
c 94 sequence_3("e1","e2","e1")
c 95 sequence_3("e2","e2","e1")
c 96 sequence_3("e3","e2","e1")
c 97 sequence_3("e4","e2","e1")
c 98 sequence_3("e1","e3","e1")
c 99 sequence_3("e2","e3","e1")
c 100 sequence_3("e3","e3","e1")
c 101 sequence_3("e4","e3","e1")
c 102 sequence_3("e1","e4","e1")
c 103 sequence_3("e2","e4","e1")
c 104 sequence_3("e3","e4","e1")
c 105 sequence_3("e4","e4","e1")
c 106 sequence_3("e1","e1","e2")
c 107 sequence_3("e2","e1","e2")
c 108 sequence_3("e3","e1","e2")
c 109 sequence_3("e4","e1","e2")
c 110 sequence_3("e1","e2","e2")
c 111 sequence_3("e2","e2","e2")
c 112 sequence_3("e3","e2","e2")
c 113 sequence_3("e4","e2","e2")
c 114 sequence_3("e1","e3","e2")
c 115 sequence_3("e2","e3","e2")
c 116 sequence_3("e3","e3","e2")
c 117 sequence_3("e4","e3","e2")
c 118 sequence_3("e1","e4","e2")
c 119 sequence_3("e2","e4","e2")
c 120 sequence_3("e3","e4","e2")
c 121 sequence_3("e4","e4","e2")
c 122 sequence_3("e1","e1","e3")
c 123 sequence_3("e2","e1","e3")
c 124 sequence_3("e3","e1","e3")
c 125 sequence_3("e4","e1","e3")
c 126 sequence_3("e1","e2","e3")
c 127 sequence_3("e2","e2","e3")
c 128 sequence_3("e3","e2","e3")
c 129 sequence_3("e4","e2","e3")
c 130 sequence_3("e1","e3","e3")
c 131 sequence_3("e2","e3","e3")
c 132 sequence_3("e3","e3","e3")
c 133 sequence_3("e4","e3","e3")
c 134 sequence_3("e1","e4","e3")
c 135 sequence_3("e2","e4","e3")
c 136 sequence_3("e3","e4","e3")
c 137 sequence_3("e4","e4","e3")
c 138 sequence_3("e1","e1","e4")
c 139 sequence_3("e2","e1","e4")
c 140 sequence_3("e3","e1","e4")
c 141 sequence_3("e4","e1","e4")
c 142 sequence_3("e1","e2","e4")
c 143 sequence_3("e2","e2","e4")
c 144 sequence_3("e3","e2","e4")
c 145 sequence_3("e4","e2","e4")
c 146 sequence_3("e1","e3","e4")
c 147 sequence_3("e2","e3","e4")
c 148 sequence_3("e3","e3","e4")
c 149 sequence_3("e4","e3","e4")
c 150 sequence_3("e1","e4","e4")
c 151 sequence_3("e2","e4","e4")
c 152 sequence_3("e3","e4","e4")
c 153 sequence_3("e4","e4","e4")
c 154 used_3("e1",1)
c 155 used_3("e2",1)
c 156 used_3("e3",1)
c 157 used_3("e4",1)
c 158 used_3("e1",2)
c 159 used_3("e2",2)
c 160 used_3("e3",2)
c 161 used_3("e4",2)
2 0
3 0
4 0
5 0
6 0
7 0
8 0
9 0
10 0
11 0
12 0
13 0
14 0
15 0
16 0
17 0
18 0
19 0
20 0
21 0
22 0
23 0
24 0
25 0
26 0
27 0
28 0
29 0
30 0
31 0
32 0
33 0
34 0
35 0
36 0
37 0
38 0
39 0
40 0
41 0
42 0
43 0
44 0
45 0
46 0
47 0
48 0
49 0
50 0
51 0
52 0
53 0
54 0
55 0
56 0
57 0
58 0
59 0
60 0
61 0
62 0
63 0
64 0
65 0
66 0
67 0
68 0
69 0
70 0
71 0
72 0
73 0
74 0
75 0
76 0
77 0
78 0
79 0
80 0
81 0
82 0
83 0
84 0
85 0
394 86 0
-394 -86 0
616 395 0
-616 -395 0
617 402 0
-617 -402 0
618 406 0
-618 -406 0
619 410 0
-619 -410 0
620 414 0
-620 -414 0
621 418 0
-621 -418 0
622 422 0
-622 -422 0
623 426 0
-623 -426 0
624 430 0
-624 -430 0
625 434 0
-625 -434 0
626 438 0
-626 -438 0
627 442 0
-627 -442 0
628 446 0
-628 -446 0
629 450 0
-629 -450 0
630 454 0
-630 -454 0
631 458 0
-631 -458 0
395 87 0
-395 -87 0
87 181 0
-87 -181 0
396 88 0
-396 -88 0
632 397 0
-632 -397 0
633 403 0
-633 -403 0
634 407 0
-634 -407 0
635 411 0
-635 -411 0
636 415 0
-636 -415 0
637 419 0
-637 -419 0
638 423 0
-638 -423 0
639 427 0
-639 -427 0
640 431 0
-640 -431 0
641 435 0
-641 -435 0
642 439 0
-642 -439 0
643 443 0
-643 -443 0
644 447 0
-644 -447 0
645 451 0
-645 -451 0
646 455 0
-646 -455 0
647 459 0
-647 -459 0
397 89 0
-397 -89 0
89 182 0
-89 -182 0
398 90 0
-398 -90 0
648 399 0
-648 -399 0
649 404 0
-649 -404 0
650 408 0
-650 -408 0
651 412 0
-651 -412 0
652 416 0
-652 -416 0
653 420 0
-653 -420 0
654 424 0
-654 -424 0
655 428 0
-655 -428 0
656 432 0
-656 -432 0
657 436 0
-657 -436 0
658 440 0
-658 -440 0
659 444 0
-659 -444 0
660 448 0
-660 -448 0
661 452 0
-661 -452 0
662 456 0
-662 -456 0
663 460 0
-663 -460 0
399 91 0
-399 -91 0
91 183 0
-91 -183 0
664 401 0
-664 -401 0
665 405 0
-665 -405 0
666 409 0
-666 -409 0
667 413 0
-667 -413 0
668 417 0
-668 -417 0
669 421 0
-669 -421 0
670 425 0
-670 -425 0
671 429 0
-671 -429 0
672 433 0
-672 -433 0
673 437 0
-673 -437 0
674 441 0
-674 -441 0
675 445 0
-675 -445 0
676 449 0
-676 -449 0
677 453 0
-677 -453 0
678 457 0
-678 -457 0
679 461 0
-679 -461 0
401 93 0
-401 -93 0
93 184 0
-93 -184 0
402 94 0
-402 -94 0
94 185 0
-94 -185 0
403 95 0
-403 -95 0
95 186 0
-95 -186 0
404 96 0
-404 -96 0
96 187 0
-96 -187 0
405 97 0
-405 -97 0
97 188 0
-97 -188 0
406 98 0
-406 -98 0
98 189 0
-98 -189 0
407 99 0
-407 -99 0
99 190 0
-99 -190 0
408 100 0
-408 -100 0
100 191 0
-100 -191 0
409 101 0
-409 -101 0
101 192 0
-101 -192 0
410 102 0
-410 -102 0
102 193 0
-102 -193 0
411 103 0
-411 -103 0
103 194 0
-103 -194 0
412 104 0
-412 -104 0
104 195 0
-104 -195 0
413 105 0
-413 -105 0
105 196 0
-105 -196 0
414 106 0
-414 -106 0
106 197 0
-106 -197 0
415 107 0
-415 -107 0
107 198 0
-107 -198 0
416 108 0
-416 -108 0
108 199 0
-108 -199 0
417 109 0
-417 -109 0
109 200 0
-109 -200 0
418 110 0
-418 -110 0
110 201 0
-110 -201 0
419 111 0
-419 -111 0
111 202 0
-111 -202 0
420 112 0
-420 -112 0
112 203 0
-112 -203 0
421 113 0
-421 -113 0
113 204 0
-113 -204 0
422 114 0
-422 -114 0
114 205 0
-114 -205 0
423 115 0
-423 -115 0
115 206 0
-115 -206 0
424 116 0
-424 -116 0
116 207 0
-116 -207 0
425 117 0
-425 -117 0
117 208 0
-117 -208 0
426 118 0
-426 -118 0
118 209 0
-118 -209 0
427 119 0
-427 -119 0
119 210 0
-119 -210 0
428 120 0
-428 -120 0
120 211 0
-120 -211 0
429 121 0
-429 -121 0
121 212 0
-121 -212 0
430 122 0
-430 -122 0
122 213 0
-122 -213 0
431 123 0
-431 -123 0
123 214 0
-123 -214 0
432 124 0
-432 -124 0
124 215 0
-124 -215 0
433 125 0
-433 -125 0
125 216 0
-125 -216 0
434 126 0
-434 -126 0
126 217 0
-126 -217 0
435 127 0
-435 -127 0
127 218 0
-127 -218 0
436 128 0
-436 -128 0
128 219 0
-128 -219 0
437 129 0
-437 -129 0
129 220 0
-129 -220 0
438 130 0
-438 -130 0
130 221 0
-130 -221 0
439 131 0
-439 -131 0
131 222 0
-131 -222 0
440 132 0
-440 -132 0
132 223 0
-132 -223 0
441 133 0
-441 -133 0
133 224 0
-133 -224 0
442 134 0
-442 -134 0
134 225 0
-134 -225 0
443 135 0
-443 -135 0
135 226 0
-135 -226 0
444 136 0
-444 -136 0
136 227 0
-136 -227 0
445 137 0
-445 -137 0
137 228 0
-137 -228 0
446 138 0
-446 -138 0
138 229 0
-138 -229 0
447 139 0
-447 -139 0
139 230 0
-139 -230 0
448 140 0
-448 -140 0
140 231 0
-140 -231 0
449 141 0
-449 -141 0
141 232 0
-141 -232 0
450 142 0
-450 -142 0
142 233 0
-142 -233 0
451 143 0
-451 -143 0
143 234 0
-143 -234 0
452 144 0
-452 -144 0
144 235 0
-144 -235 0
453 145 0
-453 -145 0
145 236 0
-145 -236 0
454 146 0
-454 -146 0
146 237 0
-146 -237 0
455 147 0
-455 -147 0
147 238 0
-147 -238 0
456 148 0
-456 -148 0
148 239 0
-148 -239 0
457 149 0
-457 -149 0
149 240 0
-149 -240 0
458 150 0
-458 -150 0
150 241 0
-150 -241 0
459 151 0
-459 -151 0
151 242 0
-151 -242 0
460 152 0
-460 -152 0
152 243 0
-152 -243 0
461 153 0
-461 -153 0
153 244 0
-153 -244 0
462 154 0
-462 -154 0
680 395 0
-680 -395 0
681 397 0
-681 -397 0
682 399 0
-682 -399 0
683 401 0
-683 -401 0
684 414 0
-684 -414 0
685 415 0
-685 -415 0
686 416 0
-686 -416 0
687 417 0
-687 -417 0
688 430 0
-688 -430 0
689 431 0
-689 -431 0
690 432 0
-690 -432 0
691 433 0
-691 -433 0
692 446 0
-692 -446 0
693 447 0
-693 -447 0
694 448 0
-694 -448 0
695 449 0
-695 -449 0
463 155 0
-463 -155 0
696 402 0
-696 -402 0
697 403 0
-697 -403 0
698 404 0
-698 -404 0
699 405 0
-699 -405 0
700 418 0
-700 -418 0
701 419 0
-701 -419 0
702 420 0
-702 -420 0
703 421 0
-703 -421 0
704 434 0
-704 -434 0
705 435 0
-705 -435 0
706 436 0
-706 -436 0
707 437 0
-707 -437 0
708 450 0
-708 -450 0
709 451 0
-709 -451 0
710 452 0
-710 -452 0
711 453 0
-711 -453 0
464 156 0
-464 -156 0
712 406 0
-712 -406 0
713 407 0
-713 -407 0
714 408 0
-714 -408 0
715 409 0
-715 -409 0
716 422 0
-716 -422 0
717 423 0
-717 -423 0
718 424 0
-718 -424 0
719 425 0
-719 -425 0
720 438 0
-720 -438 0
721 439 0
-721 -439 0
722 440 0
-722 -440 0
723 441 0
-723 -441 0
724 454 0
-724 -454 0
725 455 0
-725 -455 0
726 456 0
-726 -456 0
727 457 0
-727 -457 0
728 410 0
-728 -410 0
729 411 0
-729 -411 0
730 412 0
-730 -412 0
731 413 0
-731 -413 0
732 426 0
-732 -426 0
733 427 0
-733 -427 0
734 428 0
-734 -428 0
735 429 0
-735 -429 0
736 442 0
-736 -442 0
737 443 0
-737 -443 0
738 444 0
-738 -444 0
739 445 0
-739 -445 0
740 458 0
-740 -458 0
741 459 0
-741 -459 0
742 460 0
-742 -460 0
743 461 0
-743 -461 0
466 158 0
-466 -158 0
744 395 0
-744 -395 0
745 397 0
-745 -397 0
746 399 0
-746 -399 0
747 401 0
-747 -401 0
748 402 0
-748 -402 0
749 403 0
-749 -403 0
750 404 0
-750 -404 0
751 405 0
-751 -405 0
752 406 0
-752 -406 0
753 407 0
-753 -407 0
754 408 0
-754 -408 0
755 409 0
-755 -409 0
756 410 0
-756 -410 0
757 411 0
-757 -411 0
758 412 0
-758 -412 0
759 413 0
-759 -413 0
467 159 0
-467 -159 0
760 414 0
-760 -414 0
761 415 0
-761 -415 0
762 416 0
-762 -416 0
763 417 0
-763 -417 0
764 418 0
-764 -418 0
765 419 0
-765 -419 0
766 420 0
-766 -420 0
767 421 0
-767 -421 0
768 422 0
-768 -422 0
769 423 0
-769 -423 0
770 424 0
-770 -424 0
771 425 0
-771 -425 0
772 426 0
-772 -426 0
773 427 0
-773 -427 0
774 428 0
-774 -428 0
775 429 0
-775 -429 0
468 160 0
-468 -160 0
776 430 0
-776 -430 0
777 431 0
-777 -431 0
778 432 0
-778 -432 0
779 433 0
-779 -433 0
780 434 0
-780 -434 0
781 435 0
-781 -435 0
782 436 0
-782 -436 0
783 437 0
-783 -437 0
784 438 0
-784 -438 0
785 439 0
-785 -439 0
786 440 0
-786 -440 0
787 441 0
-787 -441 0
788 442 0
-788 -442 0
789 443 0
-789 -443 0
790 444 0
-790 -444 0
791 445 0
-791 -445 0
792 446 0
-792 -446 0
793 447 0
-793 -447 0
794 448 0
-794 -448 0
795 449 0
-795 -449 0
796 450 0
-796 -450 0
797 451 0
-797 -451 0
798 452 0
-798 -452 0
799 453 0
-799 -453 0
800 454 0
-800 -454 0
801 455 0
-801 -455 0
802 456 0
-802 -456 0
803 457 0
-803 -457 0
804 458 0
-804 -458 0
805 459 0
-805 -459 0
806 460 0
-806 -460 0
807 461 0
-807 -461 0
470 162 0
-470 -162 0
808 394 0
-808 -394 0
809 396 0
-809 -396 0
810 398 0
-810 -398 0
471 163 0
-471 -163 0
811 462 0
-811 -462 0
812 463 0
-812 -463 0
813 464 0
-813 -464 0
472 164 0
-472 -164 0
814 466 0
-814 -466 0
815 467 0
-815 -467 0
816 468 0
-816 -468 0
817 470 0
-817 -470 0
818 471 0
-818 -471 0
819 472 0
-819 -472 0
474 166 0
-474 -166 0
820 394 0
-820 -394 0
821 396 0
-821 -396 0
822 398 0
-822 -398 0
475 167 0
-475 -167 0
823 462 0
-823 -462 0
824 463 0
-824 -463 0
825 464 0
-825 -464 0
476 168 0
-476 -168 0
826 466 0
-826 -466 0
827 467 0
-827 -467 0
828 468 0
-828 -468 0
477 169 0
-477 -169 0
829 474 0
-829 -474 0
830 475 0
-830 -475 0
831 476 0
-831 -476 0
832 474 475 0
-832 -474 0
-832 -475 0
833 474 476 0
-833 -474 0
-833 -476 0
834 475 476 0
-834 -475 0
-834 -476 0
477 170 0
480 172 0
-480 -172 0
835 394 0
-835 -394 0
836 396 0
-836 -396 0
837 398 0
-837 -398 0
481 173 0
-481 -173 0
838 462 0
-838 -462 0
839 463 0
-839 -463 0
840 464 0
-840 -464 0
482 174 0
-482 -174 0
841 466 0
-841 -466 0
842 467 0
-842 -467 0
843 468 0
-843 -468 0
483 175 0
-483 -175 0
844 480 481 0
-844 -480 0
-844 -481 0
845 480 482 0
-845 -480 0
-845 -482 0
846 481 482 0
-846 -481 0
-846 -482 0
176 480 481 482 0
-176 -480 0
-176 -481 0
-176 -482 0
483 176 0
486 178 0
-486 -178 0
847 395 0
-847 -395 0
848 397 0
-848 -397 0
849 399 0
-849 -399 0
850 401 0
-850 -401 0
851 402 0
-851 -402 0
852 403 0
-852 -403 0
853 404 0
-853 -404 0
854 405 0
-854 -405 0
855 406 0
-855 -406 0
856 407 0
-856 -407 0
857 408 0
-857 -408 0
858 409 0
-858 -409 0
859 410 0
-859 -410 0
860 411 0
-860 -411 0
861 412 0
-861 -412 0
862 413 0
-862 -413 0
863 414 0
-863 -414 0
864 415 0
-864 -415 0
865 416 0
-865 -416 0
866 417 0
-866 -417 0
867 418 0
-867 -418 0
868 419 0
-868 -419 0
869 420 0
-869 -420 0
870 421 0
-870 -421 0
871 422 0
-871 -422 0
872 423 0
-872 -423 0
873 424 0
-873 -424 0
874 425 0
-874 -425 0
875 426 0
-875 -426 0
876 427 0
-876 -427 0
877 428 0
-877 -428 0
878 429 0
-878 -429 0
879 430 0
-879 -430 0
880 431 0
-880 -431 0
881 432 0
-881 -432 0
882 433 0
-882 -433 0
883 434 0
-883 -434 0
884 435 0
-884 -435 0
885 436 0
-885 -436 0
886 437 0
-886 -437 0
887 438 0
-887 -438 0
888 439 0
-888 -439 0
889 440 0
-889 -440 0
890 441 0
-890 -441 0
891 442 0
-891 -442 0
892 443 0
-892 -443 0
893 444 0
-893 -444 0
894 445 0
-894 -445 0
895 446 0
-895 -446 0
896 447 0
-896 -447 0
897 448 0
-897 -448 0
898 449 0
-898 -449 0
899 450 0
-899 -450 0
900 451 0
-900 -451 0
901 452 0
-901 -452 0
902 453 0
-902 -453 0
903 454 0
-903 -454 0
904 455 0
-904 -455 0
905 456 0
-905 -456 0
906 457 0
-906 -457 0
907 458 0
-907 -458 0
908 459 0
-908 -459 0
909 460 0
-909 -460 0
910 461 0
-910 -461 0
911 553 397 0
-911 -553 0
-911 -397 0
912 554 399 0
-912 -554 0
-912 -399 0
913 555 401 0
-913 -555 0
-913 -401 0
914 556 402 0
-914 -556 0
-914 -402 0
915 557 403 0
-915 -557 0
-915 -403 0
916 558 404 0
-916 -558 0
-916 -404 0
917 559 405 0
-917 -559 0
-917 -405 0
918 560 406 0
-918 -560 0
-918 -406 0
919 561 407 0
-919 -561 0
-919 -407 0
920 562 408 0
-920 -562 0
-920 -408 0
921 563 409 0
-921 -563 0
-921 -409 0
922 564 410 0
-922 -564 0
-922 -410 0
923 565 411 0
-923 -565 0
-923 -411 0
924 566 412 0
-924 -566 0
-924 -412 0
925 567 413 0
-925 -567 0
-925 -413 0
926 568 414 0
-926 -568 0
-926 -414 0
927 569 415 0
-927 -569 0
-927 -415 0
928 570 416 0
-928 -570 0
-928 -416 0
929 571 417 0
-929 -571 0
-929 -417 0
930 572 418 0
-930 -572 0
-930 -418 0
931 573 419 0
-931 -573 0
-931 -419 0
932 574 420 0
-932 -574 0
-932 -420 0
933 575 421 0
-933 -575 0
-933 -421 0
934 576 422 0
-934 -576 0
-934 -422 0
935 577 423 0
-935 -577 0
-935 -423 0
936 578 424 0
-936 -578 0
-936 -424 0
937 579 425 0
-937 -579 0
-937 -425 0
938 580 426 0
-938 -580 0
-938 -426 0
939 581 427 0
-939 -581 0
-939 -427 0
940 582 428 0
-940 -582 0
-940 -428 0
941 583 429 0
-941 -583 0
-941 -429 0
942 584 430 0
-942 -584 0
-942 -430 0
943 585 431 0
-943 -585 0
-943 -431 0
944 586 432 0
-944 -586 0
-944 -432 0
945 587 433 0
-945 -587 0
-945 -433 0
946 588 434 0
-946 -588 0
-946 -434 0
947 589 435 0
-947 -589 0
-947 -435 0
948 590 436 0
-948 -590 0
-948 -436 0
949 591 437 0
-949 -591 0
-949 -437 0
950 592 438 0
-950 -592 0
-950 -438 0
951 593 439 0
-951 -593 0
-951 -439 0
952 594 440 0
-952 -594 0
-952 -440 0
953 595 441 0
-953 -595 0
-953 -441 0
954 596 442 0
-954 -596 0
-954 -442 0
955 597 443 0
-955 -597 0
-955 -443 0
956 598 444 0
-956 -598 0
-956 -444 0
957 599 445 0
-957 -599 0
-957 -445 0
958 600 446 0
-958 -600 0
-958 -446 0
959 601 447 0
-959 -601 0
-959 -447 0
960 602 448 0
-960 -602 0
-960 -448 0
961 603 449 0
-961 -603 0
-961 -449 0
962 604 450 0
-962 -604 0
-962 -450 0
963 605 451 0
-963 -605 0
-963 -451 0
964 606 452 0
-964 -606 0
-964 -452 0
965 607 453 0
-965 -607 0
-965 -453 0
966 608 454 0
-966 -608 0
-966 -454 0
967 609 455 0
-967 -609 0
-967 -455 0
968 610 456 0
-968 -610 0
-968 -456 0
969 611 457 0
-969 -611 0
-969 -457 0
970 612 458 0
-970 -612 0
-970 -458 0
971 613 459 0
-971 -613 0
-971 -459 0
972 614 460 0
-972 -614 0
-972 -460 0
973 615 461 0
-973 -615 0
-973 -461 0
-486 0
-179 0
181 87 0
-181 -87 0
182 89 0
-182 -89 0
183 91 0
-183 -91 0
184 93 0
-184 -93 0
185 94 0
-185 -94 0
186 95 0
-186 -95 0
187 96 0
-187 -96 0
188 97 0
-188 -97 0
189 98 0
-189 -98 0
190 99 0
-190 -99 0
191 100 0
-191 -100 0
192 101 0
-192 -101 0
193 102 0
-193 -102 0
194 103 0
-194 -103 0
195 104 0
-195 -104 0
196 105 0
-196 -105 0
197 106 0
-197 -106 0
198 107 0
-198 -107 0
199 108 0
-199 -108 0
200 109 0
-200 -109 0
201 110 0
-201 -110 0
202 111 0
-202 -111 0
203 112 0
-203 -112 0
204 113 0
-204 -113 0
205 114 0
-205 -114 0
206 115 0
-206 -115 0
207 116 0
-207 -116 0
208 117 0
-208 -117 0
209 118 0
-209 -118 0
210 119 0
-210 -119 0
211 120 0
-211 -120 0
212 121 0
-212 -121 0
213 122 0
-213 -122 0
214 123 0
-214 -123 0
215 124 0
-215 -124 0
216 125 0
-216 -125 0
217 126 0
-217 -126 0
218 127 0
-218 -127 0
219 128 0
-219 -128 0
220 129 0
-220 -129 0
221 130 0
-221 -130 0
222 131 0
-222 -131 0
223 132 0
-223 -132 0
224 133 0
-224 -133 0
225 134 0
-225 -134 0
226 135 0
-226 -135 0
227 136 0
-227 -136 0
228 137 0
-228 -137 0
229 138 0
-229 -138 0
230 139 0
-230 -139 0
231 140 0
-231 -140 0
232 141 0
-232 -141 0
233 142 0
-233 -142 0
234 143 0
-234 -143 0
235 144 0
-235 -144 0
236 145 0
-236 -145 0
237 146 0
-237 -146 0
238 147 0
-238 -147 0
239 148 0
-239 -148 0
240 149 0
-240 -149 0
241 150 0
-241 -150 0
242 151 0
-242 -151 0
243 152 0
-243 -152 0
244 153 0
-244 -153 0
553 245 0
-553 -245 0
245 395 0
-245 -395 0
554 246 0
-554 -246 0
974 553 0
-974 -553 0
975 397 0
-975 -397 0
555 247 0
-555 -247 0
976 554 0
-976 -554 0
977 399 0
-977 -399 0
556 248 0
-556 -248 0
978 555 0
-978 -555 0
979 401 0
-979 -401 0
557 249 0
-557 -249 0
980 556 0
-980 -556 0
981 402 0
-981 -402 0
558 250 0
-558 -250 0
982 557 0
-982 -557 0
983 403 0
-983 -403 0
559 251 0
-559 -251 0
984 558 0
-984 -558 0
985 404 0
-985 -404 0
560 252 0
-560 -252 0
986 559 0
-986 -559 0
987 405 0
-987 -405 0
561 253 0
-561 -253 0
988 560 0
-988 -560 0
989 406 0
-989 -406 0
562 254 0
-562 -254 0
990 561 0
-990 -561 0
991 407 0
-991 -407 0
563 255 0
-563 -255 0
992 562 0
-992 -562 0
993 408 0
-993 -408 0
564 256 0
-564 -256 0
994 563 0
-994 -563 0
995 409 0
-995 -409 0
565 257 0
-565 -257 0
996 564 0
-996 -564 0
997 410 0
-997 -410 0
566 258 0
-566 -258 0
998 565 0
-998 -565 0
999 411 0
-999 -411 0
567 259 0
-567 -259 0
1000 566 0
-1000 -566 0
1001 412 0
-1001 -412 0
568 260 0
-568 -260 0
1002 567 0
-1002 -567 0
1003 413 0
-1003 -413 0
569 261 0
-569 -261 0
1004 568 0
-1004 -568 0
1005 414 0
-1005 -414 0
570 262 0
-570 -262 0
1006 569 0
-1006 -569 0
1007 415 0
-1007 -415 0
571 263 0
-571 -263 0
1008 570 0
-1008 -570 0
1009 416 0
-1009 -416 0
572 264 0
-572 -264 0
1010 571 0
-1010 -571 0
1011 417 0
-1011 -417 0
573 265 0
-573 -265 0
1012 572 0
-1012 -572 0
1013 418 0
-1013 -418 0
574 266 0
-574 -266 0
1014 573 0
-1014 -573 0
1015 419 0
-1015 -419 0
575 267 0
-575 -267 0
1016 574 0
-1016 -574 0
1017 420 0
-1017 -420 0
576 268 0
-576 -268 0
1018 575 0
-1018 -575 0
1019 421 0
-1019 -421 0
577 269 0
-577 -269 0
1020 576 0
-1020 -576 0
1021 422 0
-1021 -422 0
578 270 0
-578 -270 0
1022 577 0
-1022 -577 0
1023 423 0
-1023 -423 0
579 271 0
-579 -271 0
1024 578 0
-1024 -578 0
1025 424 0
-1025 -424 0
580 272 0
-580 -272 0
1026 579 0
-1026 -579 0
1027 425 0
-1027 -425 0
581 273 0
-581 -273 0
1028 580 0
-1028 -580 0
1029 426 0
-1029 -426 0
582 274 0
-582 -274 0
1030 581 0
-1030 -581 0
1031 427 0
-1031 -427 0
583 275 0
-583 -275 0
1032 582 0
-1032 -582 0
1033 428 0
-1033 -428 0
584 276 0
-584 -276 0
1034 583 0
-1034 -583 0
1035 429 0
-1035 -429 0
585 277 0
-585 -277 0
1036 584 0
-1036 -584 0
1037 430 0
-1037 -430 0
586 278 0
-586 -278 0
1038 585 0
-1038 -585 0
1039 431 0
-1039 -431 0
587 279 0
-587 -279 0
1040 586 0
-1040 -586 0
1041 432 0
-1041 -432 0
588 280 0
-588 -280 0
1042 587 0
-1042 -587 0
1043 433 0
-1043 -433 0
589 281 0
-589 -281 0
1044 588 0
-1044 -588 0
1045 434 0
-1045 -434 0
590 282 0
-590 -282 0
1046 589 0
-1046 -589 0
1047 435 0
-1047 -435 0
591 283 0
-591 -283 0
1048 590 0
-1048 -590 0
1049 436 0
-1049 -436 0
592 284 0
-592 -284 0
1050 591 0
-1050 -591 0
1051 437 0
-1051 -437 0
593 285 0
-593 -285 0
1052 592 0
-1052 -592 0
1053 438 0
-1053 -438 0
594 286 0
-594 -286 0
1054 593 0
-1054 -593 0
1055 439 0
-1055 -439 0
595 287 0
-595 -287 0
1056 594 0
-1056 -594 0
1057 440 0
-1057 -440 0
596 288 0
-596 -288 0
1058 595 0
-1058 -595 0
1059 441 0
-1059 -441 0
597 289 0
-597 -289 0
1060 596 0
-1060 -596 0
1061 442 0
-1061 -442 0
598 290 0
-598 -290 0
1062 597 0
-1062 -597 0
1063 443 0
-1063 -443 0
599 291 0
-599 -291 0
1064 598 0
-1064 -598 0
1065 444 0
-1065 -444 0
600 292 0
-600 -292 0
1066 599 0
-1066 -599 0
1067 445 0
-1067 -445 0
601 293 0
-601 -293 0
1068 600 0
-1068 -600 0
1069 446 0
-1069 -446 0
602 294 0
-602 -294 0
1070 601 0
-1070 -601 0
1071 447 0
-1071 -447 0
603 295 0
-603 -295 0
1072 602 0
-1072 -602 0
1073 448 0
-1073 -448 0
604 296 0
-604 -296 0
1074 603 0
-1074 -603 0
1075 449 0
-1075 -449 0
605 297 0
-605 -297 0
1076 604 0
-1076 -604 0
1077 450 0
-1077 -450 0
606 298 0
-606 -298 0
1078 605 0
-1078 -605 0
1079 451 0
-1079 -451 0
607 299 0
-607 -299 0
1080 606 0
-1080 -606 0
1081 452 0
-1081 -452 0
608 300 0
-608 -300 0
1082 607 0
-1082 -607 0
1083 453 0
-1083 -453 0
609 301 0
-609 -301 0
1084 608 0
-1084 -608 0
1085 454 0
-1085 -454 0
610 302 0
-610 -302 0
1086 609 0
-1086 -609 0
1087 455 0
-1087 -455 0
611 303 0
-611 -303 0
1088 610 0
-1088 -610 0
1089 456 0
-1089 -456 0
612 304 0
-612 -304 0
1090 611 0
-1090 -611 0
1091 457 0
-1091 -457 0
613 305 0
-613 -305 0
1092 612 0
-1092 -612 0
1093 458 0
-1093 -458 0
614 306 0
-614 -306 0
1094 613 0
-1094 -613 0
1095 459 0
-1095 -459 0
615 307 0
-615 -307 0
1096 614 0
-1096 -614 0
1097 460 0
-1097 -460 0
-1 0
-1 0
-86 616 617 618 619 620 621 622 623 624 625 626 627 628 629 630 631 0
86 -616 0
86 -617 0
86 -618 0
86 -619 0
86 -620 0
86 -621 0
86 -622 0
86 -623 0
86 -624 0
86 -625 0
86 -626 0
86 -627 0
86 -628 0
86 -629 0
86 -630 0
86 -631 0
-88 632 633 634 635 636 637 638 639 640 641 642 643 644 645 646 647 0
88 -632 0
88 -633 0
88 -634 0
88 -635 0
88 -636 0
88 -637 0
88 -638 0
88 -639 0
88 -640 0
88 -641 0
88 -642 0
88 -643 0
88 -644 0
88 -645 0
88 -646 0
88 -647 0
-90 648 649 650 651 652 653 654 655 656 657 658 659 660 661 662 663 0
90 -648 0
90 -649 0
90 -650 0
90 -651 0
90 -652 0
90 -653 0
90 -654 0
90 -655 0
90 -656 0
90 -657 0
90 -658 0
90 -659 0
90 -660 0
90 -661 0
90 -662 0
90 -663 0
-92 664 665 666 667 668 669 670 671 672 673 674 675 676 677 678 679 0
92 -664 0
92 -665 0
92 -666 0
92 -667 0
92 -668 0
92 -669 0
92 -670 0
92 -671 0
92 -672 0
92 -673 0
92 -674 0
92 -675 0
92 -676 0
92 -677 0
92 -678 0
92 -679 0
-154 680 681 682 683 684 685 686 687 688 689 690 691 692 693 694 695 0
154 -680 0
154 -681 0
154 -682 0
154 -683 0
154 -684 0
154 -685 0
154 -686 0
154 -687 0
154 -688 0
154 -689 0
154 -690 0
154 -691 0
154 -692 0
154 -693 0
154 -694 0
154 -695 0
-155 696 697 698 699 700 701 702 703 704 705 706 707 708 709 710 711 0
155 -696 0
155 -697 0
155 -698 0
155 -699 0
155 -700 0
155 -701 0
155 -702 0
155 -703 0
155 -704 0
155 -705 0
155 -706 0
155 -707 0
155 -708 0
155 -709 0
155 -710 0
155 -711 0
-156 712 713 714 715 716 717 718 719 720 721 722 723 724 725 726 727 0
156 -712 0
156 -713 0
156 -714 0
156 -715 0
156 -716 0
156 -717 0
156 -718 0
156 -719 0
156 -720 0
156 -721 0
156 -722 0
156 -723 0
156 -724 0
156 -725 0
156 -726 0
156 -727 0
-157 728 729 730 731 732 733 734 735 736 737 738 739 740 741 742 743 0
157 -728 0
157 -729 0
157 -730 0
157 -731 0
157 -732 0
157 -733 0
157 -734 0
157 -735 0
157 -736 0
157 -737 0
157 -738 0
157 -739 0
157 -740 0
157 -741 0
157 -742 0
157 -743 0
-158 744 745 746 747 748 749 750 751 752 753 754 755 756 757 758 759 0
158 -744 0
158 -745 0
158 -746 0
158 -747 0
158 -748 0
158 -749 0
158 -750 0
158 -751 0
158 -752 0
158 -753 0
158 -754 0
158 -755 0
158 -756 0
158 -757 0
158 -758 0
158 -759 0
-159 760 761 762 763 764 765 766 767 768 769 770 771 772 773 774 775 0
159 -760 0
159 -761 0
159 -762 0
159 -763 0
159 -764 0
159 -765 0
159 -766 0
159 -767 0
159 -768 0
159 -769 0
159 -770 0
159 -771 0
159 -772 0
159 -773 0
159 -774 0
159 -775 0
-160 776 777 778 779 780 781 782 783 784 785 786 787 788 789 790 791 0
160 -776 0
160 -777 0
160 -778 0
160 -779 0
160 -780 0
160 -781 0
160 -782 0
160 -783 0
160 -784 0
160 -785 0
160 -786 0
160 -787 0
160 -788 0
160 -789 0
160 -790 0
160 -791 0
-161 792 793 794 795 796 797 798 799 800 801 802 803 804 805 806 807 0
161 -792 0
161 -793 0
161 -794 0
161 -795 0
161 -796 0
161 -797 0
161 -798 0
161 -799 0
161 -800 0
161 -801 0
161 -802 0
161 -803 0
161 -804 0
161 -805 0
161 -806 0
161 -807 0
-162 808 809 810 0
162 -808 0
162 -809 0
162 -810 0
-163 811 812 813 0
163 -811 0
163 -812 0
163 -813 0
-164 814 815 816 0
164 -814 0
164 -815 0
164 -816 0
165 0
817 818 819 0
-166 820 821 822 0
166 -820 0
166 -821 0
166 -822 0
-167 823 824 825 0
167 -823 0
167 -824 0
167 -825 0
-168 826 827 828 0
168 -826 0
168 -827 0
168 -828 0
-169 829 830 831 0
169 -829 0
169 -830 0
169 -831 0
-170 832 833 834 0
170 -832 0
170 -833 0
170 -834 0
-171 0
-172 835 836 837 0
172 -835 0
172 -836 0
172 -837 0
-173 838 839 840 0
173 -838 0
173 -839 0
173 -840 0
-174 841 842 843 0
174 -841 0
174 -842 0
174 -843 0
-175 844 845 846 0
175 -844 0
175 -845 0
175 -846 0
-177 0
-178 847 848 849 850 851 852 853 854 855 856 857 858 859 860 861 862 863 864 865 866 867 868 869 870 871 872 873 874 875 876 877 878 879 880 881 882 883 884 885 886 887 888 889 890 891 892 893 894 895 896 897 898 899 900 901 902 903 904 905 906 907 908 909 910 0
178 -847 0
178 -848 0
178 -849 0
178 -850 0
178 -851 0
178 -852 0
178 -853 0
178 -854 0
178 -855 0
178 -856 0
178 -857 0
178 -858 0
178 -859 0
178 -860 0
178 -861 0
178 -862 0
178 -863 0
178 -864 0
178 -865 0
178 -866 0
178 -867 0
178 -868 0
178 -869 0
178 -870 0
178 -871 0
178 -872 0
178 -873 0
178 -874 0
178 -875 0
178 -876 0
178 -877 0
178 -878 0
178 -879 0
178 -880 0
178 -881 0
178 -882 0
178 -883 0
178 -884 0
178 -885 0
178 -886 0
178 -887 0
178 -888 0
178 -889 0
178 -890 0
178 -891 0
178 -892 0
178 -893 0
178 -894 0
178 -895 0
178 -896 0
178 -897 0
178 -898 0
178 -899 0
178 -900 0
178 -901 0
178 -902 0
178 -903 0
178 -904 0
178 -905 0
178 -906 0
178 -907 0
178 -908 0
178 -909 0
178 -910 0
-179 911 912 913 914 915 916 917 918 919 920 921 922 923 924 925 926 927 928 929 930 931 932 933 934 935 936 937 938 939 940 941 942 943 944 945 946 947 948 949 950 951 952 953 954 955 956 957 958 959 960 961 962 963 964 965 966 967 968 969 970 971 972 973 0
179 -911 0
179 -912 0
179 -913 0
179 -914 0
179 -915 0
179 -916 0
179 -917 0
179 -918 0
179 -919 0
179 -920 0
179 -921 0
179 -922 0
179 -923 0
179 -924 0
179 -925 0
179 -926 0
179 -927 0
179 -928 0
179 -929 0
179 -930 0
179 -931 0
179 -932 0
179 -933 0
179 -934 0
179 -935 0
179 -936 0
179 -937 0
179 -938 0
179 -939 0
179 -940 0
179 -941 0
179 -942 0
179 -943 0
179 -944 0
179 -945 0
179 -946 0
179 -947 0
179 -948 0
179 -949 0
179 -950 0
179 -951 0
179 -952 0
179 -953 0
179 -954 0
179 -955 0
179 -956 0
179 -957 0
179 -958 0
179 -959 0
179 -960 0
179 -961 0
179 -962 0
179 -963 0
179 -964 0
179 -965 0
179 -966 0
179 -967 0
179 -968 0
179 -969 0
179 -970 0
179 -971 0
179 -972 0
179 -973 0
180 0
-246 974 975 0
246 -974 0
246 -975 0
-247 976 977 0
247 -976 0
247 -977 0
-248 978 979 0
248 -978 0
248 -979 0
-249 980 981 0
249 -980 0
249 -981 0
-250 982 983 0
250 -982 0
250 -983 0
-251 984 985 0
251 -984 0
251 -985 0
-252 986 987 0
252 -986 0
252 -987 0
-253 988 989 0
253 -988 0
253 -989 0
-254 990 991 0
254 -990 0
254 -991 0
-255 992 993 0
255 -992 0
255 -993 0
-256 994 995 0
256 -994 0
256 -995 0
-257 996 997 0
257 -996 0
257 -997 0
-258 998 999 0
258 -998 0
258 -999 0
-259 1000 1001 0
259 -1000 0
259 -1001 0
-260 1002 1003 0
260 -1002 0
260 -1003 0
-261 1004 1005 0
261 -1004 0
261 -1005 0
-262 1006 1007 0
262 -1006 0
262 -1007 0
-263 1008 1009 0
263 -1008 0
263 -1009 0
-264 1010 1011 0
264 -1010 0
264 -1011 0
-265 1012 1013 0
265 -1012 0
265 -1013 0
-266 1014 1015 0
266 -1014 0
266 -1015 0
-267 1016 1017 0
267 -1016 0
267 -1017 0
-268 1018 1019 0
268 -1018 0
268 -1019 0
-269 1020 1021 0
269 -1020 0
269 -1021 0
-270 1022 1023 0
270 -1022 0
270 -1023 0
-271 1024 1025 0
271 -1024 0
271 -1025 0
-272 1026 1027 0
272 -1026 0
272 -1027 0
-273 1028 1029 0
273 -1028 0
273 -1029 0
-274 1030 1031 0
274 -1030 0
274 -1031 0
-275 1032 1033 0
275 -1032 0
275 -1033 0
-276 1034 1035 0
276 -1034 0
276 -1035 0
-277 1036 1037 0
277 -1036 0
277 -1037 0
-278 1038 1039 0
278 -1038 0
278 -1039 0
-279 1040 1041 0
279 -1040 0
279 -1041 0
-280 1042 1043 0
280 -1042 0
280 -1043 0
-281 1044 1045 0
281 -1044 0
281 -1045 0
-282 1046 1047 0
282 -1046 0
282 -1047 0
-283 1048 1049 0
283 -1048 0
283 -1049 0
-284 1050 1051 0
284 -1050 0
284 -1051 0
-285 1052 1053 0
285 -1052 0
285 -1053 0
-286 1054 1055 0
286 -1054 0
286 -1055 0
-287 1056 1057 0
287 -1056 0
287 -1057 0
-288 1058 1059 0
288 -1058 0
288 -1059 0
-289 1060 1061 0
289 -1060 0
289 -1061 0
-290 1062 1063 0
290 -1062 0
290 -1063 0
-291 1064 1065 0
291 -1064 0
291 -1065 0
-292 1066 1067 0
292 -1066 0
292 -1067 0
-293 1068 1069 0
293 -1068 0
293 -1069 0
-294 1070 1071 0
294 -1070 0
294 -1071 0
-295 1072 1073 0
295 -1072 0
295 -1073 0
-296 1074 1075 0
296 -1074 0
296 -1075 0
-297 1076 1077 0
297 -1076 0
297 -1077 0
-298 1078 1079 0
298 -1078 0
298 -1079 0
-299 1080 1081 0
299 -1080 0
299 -1081 0
-300 1082 1083 0
300 -1082 0
300 -1083 0
-301 1084 1085 0
301 -1084 0
301 -1085 0
-302 1086 1087 0
302 -1086 0
302 -1087 0
-303 1088 1089 0
303 -1088 0
303 -1089 0
-304 1090 1091 0
304 -1090 0
304 -1091 0
-305 1092 1093 0
305 -1092 0
305 -1093 0
-306 1094 1095 0
306 -1094 0
306 -1095 0
-307 1096 1097 0
307 -1096 0
307 -1097 0
-308 0
-309 0
-310 0
-311 0
-312 0
-313 0
-314 0
-315 0
-316 0
-317 0
-318 0
-319 0
-320 0
-321 0
-322 0
-323 0
-324 0
-325 0
-326 0
-327 0
-328 0
-329 0
-330 0
-331 0
-332 0
-333 0
-334 0
-335 0
-336 0
-337 0
-338 0
-339 0
-340 0
-341 0
-342 0
-343 0
-344 0
-345 0
-346 0
-347 0
-348 0
-349 0
-350 0
-351 0
-352 0
-353 0
-354 0
-355 0
-356 0
-357 0
-358 0
-359 0
-360 0
-361 0
-362 0
-363 0
-364 0
-365 0
-366 0
-367 0
-368 0
-369 0
-370 0
-371 0
-372 0
-373 0
-374 0
-375 0
-376 0
-377 0
-378 0
-379 0
-380 0
-381 0
-382 0
-383 0
-384 0
-385 0
-386 0
-387 0
-388 0
-389 0
-390 0
-391 0
-392 0
-393 0
-400 0
-465 0
-469 0
-473 0
-478 0
-479 0
-484 0
-485 0
-487 0
-488 0
-489 0
-490 0
-491 0
-492 0
-493 0
-494 0
-495 0
-496 0
-497 0
-498 0
-499 0
-500 0
-501 0
-502 0
-503 0
-504 0
-505 0
-506 0
-507 0
-508 0
-509 0
-510 0
-511 0
-512 0
-513 0
-514 0
-515 0
-516 0
-517 0
-518 0
-519 0
-520 0
-521 0
-522 0
-523 0
-524 0
-525 0
-526 0
-527 0
-528 0
-529 0
-530 0
-531 0
-532 0
-533 0
-534 0
-535 0
-536 0
-537 0
-538 0
-539 0
-540 0
-541 0
-542 0
-543 0
-544 0
-545 0
-546 0
-547 0
-548 0
-549 0
-550 0
-551 0
-552 0
